<number of tasks>
50

<cycle time>
1000

<order strength>
0.598


<task times>
1 770
2 515
3 379
4 568
5 369
6 489
7 649
8 754
9 374
10 564
11 434
12 530
13 565
14 525
15 466
16 586
17 447
18 633
19 597
20 468
21 529
22 647
23 663
24 390
25 502
26 512
27 430
28 238
29 347
30 525
31 651
32 549
33 370
34 393
35 381
36 571
37 502
38 466
39 507
40 619
41 374
42 628
43 465
44 510
45 563
46 528
47 522
48 547
49 544
50 669

<precedence relations>
1,41
2,25
3,25
4,5
4,6
5,7
5,26
5,27
5,28
6,8
7,25
8,9
8,10
8,11
8,12
8,13
8,14
9,16
10,16
11,16
12,16
13,16
14,15
14,17
15,41
16,19
16,20
16,21
16,22
16,23
16,24
17,18
17,24
18,25
19,28
19,40
20,27
20,29
20,42
22,25
22,28
22,29
23,25
23,26
23,27
23,28
23,29
24,25
24,26
24,29
25,30
25,31
25,32
25,33
25,34
25,35
25,36
26,30
26,40
26,45
27,37
28,30
28,36
28,43
29,36
29,37
29,43
30,41
31,41
32,39
32,41
33,40
34,45
35,38
36,39
37,38
38,41
39,44
39,45
40,42
40,43
40,44
41,46
41,47
41,48
41,49
41,50

<end>
